c Output_time 26.03.2020 18:15:10_+0100 1585242910153805290
c ** Program information **
c program_name                          "QBRG_debug"
c version                               "0.3.20"
c date                                  "25.3.2020"
c gid_id                                "673970833836058123f633335630c185360d632e"
c author                                "Oliver Kullmann"
c url                                   "https://github.com/OKullmann/oklibrary/blob/master/Satisfiability/Transformers/Generators/Random/QBRG.cpp"
c ** Machine information **
c machine_name                          "chyna-Lenovo-G50-70"
c bogomips                              3791.08
c ** Compilation information **
c compiler_version                      "g++ 7.5.0"
c compilation_date                      "Mar_26_2020 11:16:30"
c compilation_options                   "--std=c++17 -pedantic -fmax-errors=5 -Wall -Wextra -g -D_GLIBCXX_DEBUG"
c NDEBUG                                0
c OPTIMIZE                              0
c ** Parameters **
c command-line                          "./QBRG_debug" "a40 e40 a40 40" "146*1,1|2-2,1|3-3,1|4-4,1" "" "1,t" ""
c output                                "QuBlRaGe_160_146_1585242910145286231.qdimacs"
c options                               "filtered,renamed"
c num_quantifier_blocks                 4
c  quantifier_blocks                    1:a1-40 2:e41-80 3:a81-120 4:e121-160
c num_clause-blocks                     1
c  clause-blocks                        146 * {1-40,1,1/2} | {41-80,1,1/2} | {81-120,1,1/2} | {121-160,1,1/2}
c num_e-seeds                           37+2=39
c  e-seeds                              1 0 1 0 5 160 2 40 0 40 1 40 0 40 1 146 4 1 1 1 1 2 2 2 1 1 2 3 3 1 1 2 4 4 1 1 2 1 1585242910145285713
p cnf 156 146
a 1 2 3 4 5 6 7 8 9 10 11 12 13 14 15 16 17 18 19 20 21 22 23 24 25 26 27 28 29 30 31 32 33 34 35 36 37 38 39 40 0
e 41 42 43 44 45 46 47 48 49 50 51 52 53 54 55 56 57 58 59 60 61 62 63 64 65 66 67 68 69 70 71 72 73 74 75 76 77 0
a 78 79 80 81 82 83 84 85 86 87 88 89 90 91 92 93 94 95 96 97 98 99 100 101 102 103 104 105 106 107 108 109 110 111 112 113 114 115 116 0
e 117 118 119 120 121 122 123 124 125 126 127 128 129 130 131 132 133 134 135 136 137 138 139 140 141 142 143 144 145 146 147 148 149 150 151 152 153 154 155 156 0
35 -67 -86 -117 0
36 -73 -104 -117 0
-34 60 79 117 0
6 43 82 117 0
-21 -53 95 117 0
37 58 -108 117 0
7 66 86 118 0
-15 56 -83 -119 0
16 49 -84 -119 0
-30 -41 98 -119 0
22 52 100 -119 0
-25 71 83 119 0
-11 54 88 -120 0
13 47 -98 -120 0
12 55 -86 120 0
-36 58 94 120 0
-31 51 101 120 0
4 63 110 120 0
-20 75 111 120 0
-39 -51 -92 -121 0
30 -51 111 -121 0
-3 65 116 -121 0
40 68 -83 121 0
2 42 90 121 0
34 -46 95 121 0
-35 -69 106 121 0
-30 -55 -109 121 0
-37 61 -79 -122 0
40 69 -98 -122 0
34 72 106 -122 0
12 41 85 122 0
10 -77 92 122 0
1 55 97 -123 0
30 53 101 -123 0
-18 -44 87 123 0
23 43 -113 123 0
25 59 92 -124 0
-5 47 96 -124 0
34 41 -96 124 0
-33 -47 97 124 0
31 42 -99 124 0
25 -42 112 -125 0
28 41 -102 125 0
31 -44 104 125 0
14 61 103 -126 0
-32 -69 101 126 0
26 -44 -96 127 0
25 41 101 127 0
-40 -49 86 -128 0
-35 -45 91 128 0
-11 -47 94 129 0
15 -41 -109 129 0
-19 64 -111 -130 0
-26 64 -80 130 0
34 44 103 130 0
-25 66 -105 130 0
32 62 90 -131 0
30 -72 91 131 0
12 -52 -107 131 0
-37 -71 86 -132 0
12 -74 80 132 0
26 43 -101 132 0
-7 -65 104 132 0
6 -67 109 132 0
-18 -53 -114 132 0
9 53 82 133 0
27 45 -101 133 0
-40 -52 106 133 0
-34 66 114 133 0
1 60 -103 134 0
37 -42 116 134 0
-4 52 -87 -135 0
-31 48 89 135 0
-28 -50 90 -136 0
14 -56 91 -136 0
-5 -63 -101 -136 0
26 -59 112 -136 0
-32 -54 115 -136 0
-29 -75 -83 -137 0
-23 -47 88 137 0
-17 -53 -96 137 0
-31 46 -78 138 0
-22 -60 -96 138 0
-10 -72 96 138 0
-3 41 109 138 0
-9 -56 -112 138 0
11 56 103 -139 0
38 62 94 -140 0
-30 -46 104 140 0
27 -73 -114 140 0
-37 45 -90 -141 0
25 -65 92 -141 0
-18 -57 101 -141 0
-8 -74 -85 -142 0
6 77 83 142 0
-18 56 -106 -143 0
-33 -70 -93 143 0
-8 -66 -112 143 0
-17 -49 -86 -144 0
-36 68 86 -144 0
26 -59 100 -144 0
18 -47 84 144 0
-20 65 -99 144 0
-27 -60 84 145 0
-22 -59 -115 -146 0
26 -75 87 146 0
-25 -61 -89 -147 0
9 46 -79 147 0
31 -47 -81 -148 0
37 -41 81 -148 0
33 -43 -86 -148 0
27 58 90 -148 0
-3 43 78 148 0
-12 -66 115 148 0
14 -59 -116 148 0
-32 56 -100 -149 0
-29 -60 106 -149 0
8 -60 81 149 0
-15 43 96 149 0
24 -75 -102 149 0
2 -42 -81 -150 0
34 -41 -93 -150 0
-27 59 88 150 0
32 -70 -105 151 0
-29 62 -94 -152 0
38 54 -88 152 0
22 -72 -91 152 0
40 -63 109 -153 0
-3 -72 79 -154 0
16 66 -85 -154 0
-36 65 79 154 0
-18 -69 -87 154 0
20 -65 -102 154 0
15 -76 102 154 0
36 44 115 154 0
-17 -44 -80 -155 0
9 -72 -115 -155 0
-22 43 87 155 0
4 -46 91 155 0
7 -65 93 155 0
22 65 101 155 0
28 -50 91 -156 0
5 -57 -92 -156 0
-14 49 98 -156 0
-5 -77 90 156 0
-26 48 100 156 0
